proyfinal/src/viki/013/andrea/andrea-localstore/experimentInOfficeAgust.take6/worker_6/e11fa30d-b8bc-4c5d-8159-11fc8507b3e2.als.cnf.out
Reading from standard input... Use '--help' for help.
============================[ Problem Statistics ]=============================
|                                                                             |
|  Number of variables:         87638                                         |
|  Number of clauses:          161767                                         |
|  Parse time:                   0.04 s                                       |
|                                                                             |
============================[ Search Statistics ]==============================
| Conflicts |          ORIGINAL         |          LEARNT          | Progress |
|           |    Vars  Clauses Literals |    Limit  Clauses Lit/Cl |          |
===============================================================================
|       100 |   63033   107570   268940 |    39442      100     14 | 28.076 % |
|       250 |   63032   107526   268850 |    43386      249     41 | 28.077 % |
|       475 |   49380    69468   175209 |    47725      465     44 | 43.655 % |
|       812 |   49380    69468   175209 |    52497      802     40 | 43.655 % |
|      1318 |   49349    69444   175146 |    57747     1306     48 | 43.690 % |
|      2077 |   48973    67779   171153 |    63522     2057     59 | 44.119 % |
|      3216 |   48678    66443   167912 |    69874     3180     62 | 44.456 % |
|      4924 |   47970    63653   161257 |    76861     4805     58 | 45.263 % |
|      7486 |   47484    62457   158262 |    84548     7342     52 | 45.818 % |
===============================================================================
restarts              : 38
conflicts             : 9201           (8035 /sec)
decisions             : 33423          (0.00 % random) (29186 /sec)
propagations          : 13612125       (11886533 /sec)
conflict literals     : 435679         (36.75 % deleted)
Memory used           : 29.64 MB
CPU time              : 1.14517 s

UNSATISFIABLE
